% File represents an instance of a Composite Structure problem to be solved by a CP framework
% Created on 2025-03-26 10:42:15.457
T = 58;
n = 36;
m = 60;
edges = [(1, 2),
(8, 7),
(14, 13),
(20, 19),
(25, 26),
(31, 32),
(3, 2),
(9, 8),
(14, 15),
(21, 20),
(27, 26),
(32, 33),
(4, 3),
(9, 10),
(16, 15),
(22, 21),
(28, 27),
(34, 33),
(4, 5),
(10, 11),
(16, 17),
(22, 23),
(28, 29),
(35, 34),
(6, 5),
(12, 11),
(17, 18),
(23, 24),
(29, 30),
(35, 36),
(1, 7),
(7, 13),
(19, 13),
(25, 19),
(31, 25),
(8, 2),
(8, 14),
(14, 20),
(20, 26),
(32, 26),
(9, 3),
(9, 15),
(21, 15),
(21, 27),
(27, 33),
(4, 10),
(16, 10),
(22, 16),
(22, 28),
(28, 34),
(5, 11),
(17, 11),
(23, 17),
(23, 29),
(35, 29),
(6, 12),
(12, 18),
(24, 18),
(24, 30),
(36, 30)];
counts = [|10, 22, 10, 14,
|10, 18, 10, 12,
|10, 22, 10, 12,
|10, 22, 10, 14,
|10, 22, 10, 10,
|10, 24, 10, 12,
|10, 22, 10, 12,
|10, 22, 10, 14,
|10, 24, 10, 14,
|10, 22, 10, 10,
|10, 22, 10, 8,
|10, 22, 10, 12,
|10, 20, 10, 8,
|10, 22, 10, 12,
|10, 22, 10, 10,
|10, 22, 10, 14,
|10, 22, 10, 10,
|10, 22, 10, 8,
|10, 20, 10, 10,
|10, 22, 10, 10,
|10, 24, 10, 10,
|10, 24, 10, 14,
|10, 22, 10, 12,
|10, 22, 10, 10,
|10, 20, 10, 12,
|8, 20, 8, 10,
|8, 24, 8, 10,
|10, 24, 10, 12,
|8, 22, 8, 12,
|8, 22, 8, 8,
|10, 24, 10, 14,
|8, 22, 8, 14,
|8, 22, 8, 8,
|8, 24, 8, 10,
|8, 28, 8, 12,
|8, 26, 8, 10|];
